p cnf 12 50 
5 -12 9 0
-9 -7 10 0
-3 -6 5 0
-6 4 -1 0
-7 6 -5 0
1 -12 -2 0
1 -12 -4 0
9 -1 -2 0
7 -12 -2 0
-2 -9 -7 0
-3 11 -9 0
7 -9 -2 0
1 -12 4 0
-3 -12 -11 0
-10 3 -12 0
2 -9 11 0
-4 -3 10 0
-2 4 -6 0
-9 10 5 0
-12 11 1 0
-3 -1 10 0
-10 4 6 0
-4 -9 -11 0
12 10 1 0
-2 -5 4 0
-5 -10 -2 0
-1 -4 7 0
6 -2 10 0
-1 -6 -7 0
-10 5 3 0
8 -5 -4 0
-11 -1 7 0
2 9 -12 0
6 1 -8 0
-8 9 -5 0
6 -5 7 0
11 -1 -3 0
1 -6 3 0
4 -1 -11 0
10 11 -6 0
-6 -4 9 0
5 -1 -10 0
-2 -4 -9 0
10 -3 5 0
-10 -2 -6 0
-3 -8 10 0
3 -5 -11 0
-3 -6 2 0
8 -12 5 0
-5 11 4 0
